p cnf 324 1
324 0
w 1 0.449937
w 2 1 0.898273
w 2 -1 0.416927
w 3 2 1
w 3 -2 0
w 4 3 0.845433
w 4 -3 0.281218
w 5 4 1
w 5 -4 0
w 6 5 0
w 6 -5 1
w 7 6 0.348351
w 7 -6 0.517116
w 8 7 1
w 8 -7 0
w 9 8 1
w 9 -8 0
w 10 9 0.760107
w 10 -9 0.30805
w 11 10 1
w 11 -10 0
w 12 11 0
w 12 -11 1
w 13 12 0.758547
w 13 -12 0.973148
w 14 13 0.208485
w 14 -13 0.509435
w 15 14 0.625412
w 15 -14 0.897806
w 16 15 0
w 16 -15 1
w 17 16 0.453182
w 17 -16 0.884036
w 18 17 0.688943
w 18 -17 0.7247
w 19 1 1
w 19 -1 0
w 20 19 2 0
w 20 19 -2 0
w 20 -19 2 1
w 20 -19 -2 1
w 21 20 3 0.499041
w 21 20 -3 0.435385
w 21 -20 3 0.761002
w 21 -20 -3 0.575524
w 22 21 4 0.516137
w 22 21 -4 0.448808
w 22 -21 4 0.568511
w 22 -21 -4 0.489286
w 23 22 5 0
w 23 22 -5 0
w 23 -22 5 1
w 23 -22 -5 0
w 24 23 6 0.415609
w 24 23 -6 0.917345
w 24 -23 6 0.639766
w 24 -23 -6 0.868791
w 25 24 7 0.261979
w 25 24 -7 0.557734
w 25 -24 7 0.526081
w 25 -24 -7 0.41134
w 26 25 8 0.767898
w 26 25 -8 0.781422
w 26 -25 8 0.410177
w 26 -25 -8 0.506832
w 27 26 9 0.938149
w 27 26 -9 0.00587313
w 27 -26 9 0.344141
w 27 -26 -9 0.699151
w 28 27 10 0.154104
w 28 27 -10 0.215288
w 28 -27 10 0.0302048
w 28 -27 -10 0.722615
w 29 28 11 0.427295
w 29 28 -11 0.49961
w 29 -28 11 0.703295
w 29 -28 -11 0.670939
w 30 29 12 0.599821
w 30 29 -12 0.0865481
w 30 -29 12 0.819362
w 30 -29 -12 0.239587
w 31 30 13 0.620743
w 31 30 -13 0.501566
w 31 -30 13 0.513072
w 31 -30 -13 0.146824
w 32 31 14 0.1081
w 32 31 -14 0.914722
w 32 -31 14 0.694329
w 32 -31 -14 0.518278
w 33 32 15 1
w 33 32 -15 1
w 33 -32 15 1
w 33 -32 -15 0
w 34 33 16 0
w 34 33 -16 0
w 34 -33 16 0
w 34 -33 -16 1
w 35 34 17 0.0754407
w 35 34 -17 0.466323
w 35 -34 17 0.323556
w 35 -34 -17 0.778735
w 36 35 18 0
w 36 35 -18 1
w 36 -35 18 0
w 36 -35 -18 1
w 37 19 0.17915
w 37 -19 0.665678
w 38 37 20 1
w 38 37 -20 1
w 38 -37 20 0
w 38 -37 -20 1
w 39 38 21 0.726946
w 39 38 -21 0.3186
w 39 -38 21 0.148778
w 39 -38 -21 0.330031
w 40 39 22 0.576204
w 40 39 -22 0.277258
w 40 -39 22 0.930605
w 40 -39 -22 0.585028
w 41 40 23 0
w 41 40 -23 0
w 41 -40 23 1
w 41 -40 -23 0
w 42 41 24 1
w 42 41 -24 1
w 42 -41 24 1
w 42 -41 -24 0
w 43 42 25 0.451454
w 43 42 -25 0.796599
w 43 -42 25 0.152348
w 43 -42 -25 0.630604
w 44 43 26 1
w 44 43 -26 1
w 44 -43 26 1
w 44 -43 -26 0
w 45 44 27 0
w 45 44 -27 1
w 45 -44 27 0
w 45 -44 -27 0
w 46 45 28 0
w 46 45 -28 0
w 46 -45 28 0
w 46 -45 -28 1
w 47 46 29 1
w 47 46 -29 0
w 47 -46 29 1
w 47 -46 -29 1
w 48 47 30 1
w 48 47 -30 0
w 48 -47 30 1
w 48 -47 -30 1
w 49 48 31 0.705546
w 49 48 -31 0.294388
w 49 -48 31 0.667965
w 49 -48 -31 0.33615
w 50 49 32 0.940024
w 50 49 -32 0.658975
w 50 -49 32 0.0314424
w 50 -49 -32 0.244699
w 51 50 33 0.0334446
w 51 50 -33 0.276321
w 51 -50 33 0.223872
w 51 -50 -33 0.184224
w 52 51 34 0.440648
w 52 51 -34 0.911208
w 52 -51 34 0.276885
w 52 -51 -34 0.588029
w 53 52 35 0
w 53 52 -35 0
w 53 -52 35 0
w 53 -52 -35 1
w 54 53 36 0.185739
w 54 53 -36 0.260545
w 54 -53 36 0.844059
w 54 -53 -36 0.439831
w 55 37 0.359676
w 55 -37 0.145377
w 56 55 38 1
w 56 55 -38 1
w 56 -55 38 1
w 56 -55 -38 0
w 57 56 39 1
w 57 56 -39 1
w 57 -56 39 0
w 57 -56 -39 0
w 58 57 40 1
w 58 57 -40 1
w 58 -57 40 0
w 58 -57 -40 0
w 59 58 41 0.403544
w 59 58 -41 0.175175
w 59 -58 41 0.192926
w 59 -58 -41 0.697929
w 60 59 42 1
w 60 59 -42 0
w 60 -59 42 1
w 60 -59 -42 1
w 61 60 43 1
w 61 60 -43 1
w 61 -60 43 0
w 61 -60 -43 0
w 62 61 44 0
w 62 61 -44 1
w 62 -61 44 0
w 62 -61 -44 1
w 63 62 45 1
w 63 62 -45 0
w 63 -62 45 0
w 63 -62 -45 1
w 64 63 46 0.974793
w 64 63 -46 0.814314
w 64 -63 46 0.866937
w 64 -63 -46 0.101453
w 65 64 47 1
w 65 64 -47 0
w 65 -64 47 0
w 65 -64 -47 0
w 66 65 48 0
w 66 65 -48 1
w 66 -65 48 1
w 66 -65 -48 1
w 67 66 49 0.888167
w 67 66 -49 0.782157
w 67 -66 49 0.897524
w 67 -66 -49 0.119396
w 68 67 50 1
w 68 67 -50 1
w 68 -67 50 0
w 68 -67 -50 1
w 69 68 51 0
w 69 68 -51 0
w 69 -68 51 1
w 69 -68 -51 0
w 70 69 52 1
w 70 69 -52 0
w 70 -69 52 0
w 70 -69 -52 1
w 71 70 53 1
w 71 70 -53 0
w 71 -70 53 0
w 71 -70 -53 1
w 72 71 54 0.910696
w 72 71 -54 0.619479
w 72 -71 54 0.354221
w 72 -71 -54 0.32597
w 73 55 0
w 73 -55 1
w 74 73 56 1
w 74 73 -56 0
w 74 -73 56 1
w 74 -73 -56 0
w 75 74 57 1
w 75 74 -57 0
w 75 -74 57 0
w 75 -74 -57 1
w 76 75 58 0
w 76 75 -58 0
w 76 -75 58 1
w 76 -75 -58 0
w 77 76 59 0.56057
w 77 76 -59 0.0791828
w 77 -76 59 0.00992306
w 77 -76 -59 0.763344
w 78 77 60 1
w 78 77 -60 1
w 78 -77 60 1
w 78 -77 -60 0
w 79 78 61 0
w 79 78 -61 1
w 79 -78 61 1
w 79 -78 -61 0
w 80 79 62 0.921918
w 80 79 -62 0.531508
w 80 -79 62 0.724891
w 80 -79 -62 0.255451
w 81 80 63 0.91706
w 81 80 -63 0.99233
w 81 -80 63 0.549436
w 81 -80 -63 0.734603
w 82 81 64 0
w 82 81 -64 1
w 82 -81 64 0
w 82 -81 -64 1
w 83 82 65 0
w 83 82 -65 0
w 83 -82 65 0
w 83 -82 -65 1
w 84 83 66 0.561719
w 84 83 -66 0.756714
w 84 -83 66 0.136436
w 84 -83 -66 0.725843
w 85 84 67 0.518246
w 85 84 -67 0.509447
w 85 -84 67 0.961389
w 85 -84 -67 0.226027
w 86 85 68 0.514797
w 86 85 -68 0.147945
w 86 -85 68 0.307433
w 86 -85 -68 0.239688
w 87 86 69 1
w 87 86 -69 1
w 87 -86 69 0
w 87 -86 -69 1
w 88 87 70 0.621617
w 88 87 -70 0.596161
w 88 -87 70 0.814062
w 88 -87 -70 0.511919
w 89 88 71 0.963261
w 89 88 -71 0.30592
w 89 -88 71 0.839543
w 89 -88 -71 0.191643
w 90 89 72 1
w 90 89 -72 1
w 90 -89 72 1
w 90 -89 -72 0
w 91 73 1
w 91 -73 0
w 92 91 74 0
w 92 91 -74 1
w 92 -91 74 1
w 92 -91 -74 0
w 93 92 75 0
w 93 92 -75 0
w 93 -92 75 0
w 93 -92 -75 1
w 94 93 76 0
w 94 93 -76 0
w 94 -93 76 1
w 94 -93 -76 0
w 95 94 77 0.126532
w 95 94 -77 0.466177
w 95 -94 77 0.484308
w 95 -94 -77 0.0897924
w 96 95 78 0.323851
w 96 95 -78 0.281435
w 96 -95 78 0.88194
w 96 -95 -78 0.828715
w 97 96 79 0
w 97 96 -79 1
w 97 -96 79 0
w 97 -96 -79 0
w 98 97 80 0.502652
w 98 97 -80 0.806881
w 98 -97 80 0.0151326
w 98 -97 -80 0.267229
w 99 98 81 0.548651
w 99 98 -81 0.339239
w 99 -98 81 0.0959361
w 99 -98 -81 0.485565
w 100 99 82 0.517055
w 100 99 -82 0.818205
w 100 -99 82 0.526396
w 100 -99 -82 0.829525
w 101 100 83 0.0731377
w 101 100 -83 0.956057
w 101 -100 83 0.238639
w 101 -100 -83 0.557446
w 102 101 84 0
w 102 101 -84 0
w 102 -101 84 1
w 102 -101 -84 0
w 103 102 85 0.36208
w 103 102 -85 0.641172
w 103 -102 85 0.180026
w 103 -102 -85 0.876081
w 104 103 86 0.809586
w 104 103 -86 0.378734
w 104 -103 86 0.745048
w 104 -103 -86 0.824718
w 105 104 87 0.576612
w 105 104 -87 0.373369
w 105 -104 87 0.985201
w 105 -104 -87 0.672549
w 106 105 88 0.561017
w 106 105 -88 0.189604
w 106 -105 88 0.677138
w 106 -105 -88 0.0874135
w 107 106 89 0
w 107 106 -89 0
w 107 -106 89 1
w 107 -106 -89 0
w 108 107 90 0
w 108 107 -90 1
w 108 -107 90 0
w 108 -107 -90 0
w 109 91 1
w 109 -91 0
w 110 109 92 1
w 110 109 -92 0
w 110 -109 92 1
w 110 -109 -92 0
w 111 110 93 0.916036
w 111 110 -93 0.123635
w 111 -110 93 0.611176
w 111 -110 -93 0.492649
w 112 111 94 0
w 112 111 -94 1
w 112 -111 94 0
w 112 -111 -94 0
w 113 112 95 0
w 113 112 -95 0
w 113 -112 95 0
w 113 -112 -95 1
w 114 113 96 1
w 114 113 -96 1
w 114 -113 96 0
w 114 -113 -96 0
w 115 114 97 0.72265
w 115 114 -97 0.718469
w 115 -114 97 0.46154
w 115 -114 -97 0.0319559
w 116 115 98 1
w 116 115 -98 1
w 116 -115 98 0
w 116 -115 -98 0
w 117 116 99 0.980562
w 117 116 -99 0.781387
w 117 -116 99 0.94384
w 117 -116 -99 0.591738
w 118 117 100 1
w 118 117 -100 0
w 118 -117 100 1
w 118 -117 -100 1
w 119 118 101 1
w 119 118 -101 0
w 119 -118 101 0
w 119 -118 -101 1
w 120 119 102 0
w 120 119 -102 0
w 120 -119 102 0
w 120 -119 -102 1
w 121 120 103 0
w 121 120 -103 0
w 121 -120 103 1
w 121 -120 -103 0
w 122 121 104 0
w 122 121 -104 1
w 122 -121 104 0
w 122 -121 -104 1
w 123 122 105 0
w 123 122 -105 1
w 123 -122 105 0
w 123 -122 -105 1
w 124 123 106 0
w 124 123 -106 1
w 124 -123 106 0
w 124 -123 -106 1
w 125 124 107 1
w 125 124 -107 1
w 125 -124 107 1
w 125 -124 -107 0
w 126 125 108 0.741837
w 126 125 -108 0.348323
w 126 -125 108 0.0224384
w 126 -125 -108 0.860872
w 127 109 0
w 127 -109 1
w 128 127 110 0.841249
w 128 127 -110 0.190656
w 128 -127 110 0.576198
w 128 -127 -110 0.875814
w 129 128 111 0.971127
w 129 128 -111 0.925727
w 129 -128 111 0.0744881
w 129 -128 -111 0.186259
w 130 129 112 0.230467
w 130 129 -112 0.345232
w 130 -129 112 0.578416
w 130 -129 -112 0.660481
w 131 130 113 0.388746
w 131 130 -113 0.529729
w 131 -130 113 0.341648
w 131 -130 -113 0.544586
w 132 131 114 1
w 132 131 -114 0
w 132 -131 114 0
w 132 -131 -114 1
w 133 132 115 1
w 133 132 -115 0
w 133 -132 115 1
w 133 -132 -115 1
w 134 133 116 0.596012
w 134 133 -116 0.449378
w 134 -133 116 0.695965
w 134 -133 -116 0.17221
w 135 134 117 1
w 135 134 -117 0
w 135 -134 117 1
w 135 -134 -117 0
w 136 135 118 1
w 136 135 -118 0
w 136 -135 118 0
w 136 -135 -118 1
w 137 136 119 0
w 137 136 -119 0
w 137 -136 119 0
w 137 -136 -119 1
w 138 137 120 0.0840355
w 138 137 -120 0.529629
w 138 -137 120 0.0096137
w 138 -137 -120 0.10829
w 139 138 121 0.0421958
w 139 138 -121 0.480867
w 139 -138 121 0.766256
w 139 -138 -121 0.93565
w 140 139 122 0
w 140 139 -122 1
w 140 -139 122 1
w 140 -139 -122 1
w 141 140 123 0.863565
w 141 140 -123 0.363391
w 141 -140 123 0.847208
w 141 -140 -123 0.114485
w 142 141 124 0.176804
w 142 141 -124 0.321606
w 142 -141 124 0.534557
w 142 -141 -124 0.851632
w 143 142 125 1
w 143 142 -125 1
w 143 -142 125 1
w 143 -142 -125 0
w 144 143 126 1
w 144 143 -126 0
w 144 -143 126 1
w 144 -143 -126 0
w 145 127 0.599387
w 145 -127 0.0521057
w 146 145 128 1
w 146 145 -128 1
w 146 -145 128 0
w 146 -145 -128 1
w 147 146 129 0.0874417
w 147 146 -129 0.604739
w 147 -146 129 0.223289
w 147 -146 -129 0.951007
w 148 147 130 0.0704964
w 148 147 -130 0.0654917
w 148 -147 130 0.801871
w 148 -147 -130 0.2473
w 149 148 131 1
w 149 148 -131 0
w 149 -148 131 0
w 149 -148 -131 0
w 150 149 132 0.775669
w 150 149 -132 0.0191627
w 150 -149 132 0.00347593
w 150 -149 -132 0.775965
w 151 150 133 0.96614
w 151 150 -133 0.785875
w 151 -150 133 0.869284
w 151 -150 -133 0.565527
w 152 151 134 0.329356
w 152 151 -134 0.93117
w 152 -151 134 0.825736
w 152 -151 -134 0.878424
w 153 152 135 0.345154
w 153 152 -135 0.965866
w 153 -152 135 0.173118
w 153 -152 -135 0.568442
w 154 153 136 0.141248
w 154 153 -136 0.638939
w 154 -153 136 0.982365
w 154 -153 -136 0.943119
w 155 154 137 0.369463
w 155 154 -137 0.279547
w 155 -154 137 0.985171
w 155 -154 -137 0.863705
w 156 155 138 0.555613
w 156 155 -138 0.639374
w 156 -155 138 0.530993
w 156 -155 -138 0.559088
w 157 156 139 1
w 157 156 -139 1
w 157 -156 139 0
w 157 -156 -139 0
w 158 157 140 1
w 158 157 -140 0
w 158 -157 140 1
w 158 -157 -140 1
w 159 158 141 1
w 159 158 -141 1
w 159 -158 141 1
w 159 -158 -141 0
w 160 159 142 0
w 160 159 -142 0
w 160 -159 142 1
w 160 -159 -142 1
w 161 160 143 1
w 161 160 -143 0
w 161 -160 143 1
w 161 -160 -143 0
w 162 161 144 0.844488
w 162 161 -144 0.235779
w 162 -161 144 0.17016
w 162 -161 -144 0.403576
w 163 145 0.591231
w 163 -145 0.928805
w 164 163 146 0.881586
w 164 163 -146 0.0195599
w 164 -163 146 0.891527
w 164 -163 -146 0.501297
w 165 164 147 0
w 165 164 -147 0
w 165 -164 147 1
w 165 -164 -147 1
w 166 165 148 0
w 166 165 -148 0
w 166 -165 148 0
w 166 -165 -148 1
w 167 166 149 1
w 167 166 -149 0
w 167 -166 149 1
w 167 -166 -149 0
w 168 167 150 0.536653
w 168 167 -150 0.91418
w 168 -167 150 0.599602
w 168 -167 -150 0.772432
w 169 168 151 1
w 169 168 -151 0
w 169 -168 151 0
w 169 -168 -151 0
w 170 169 152 0.951543
w 170 169 -152 0.167409
w 170 -169 152 0.0584539
w 170 -169 -152 0.993028
w 171 170 153 0.0578855
w 171 170 -153 0.624819
w 171 -170 153 0.890409
w 171 -170 -153 0.521318
w 172 171 154 1
w 172 171 -154 1
w 172 -171 154 0
w 172 -171 -154 0
w 173 172 155 0.467592
w 173 172 -155 0.264251
w 173 -172 155 0.513416
w 173 -172 -155 0.742604
w 174 173 156 0
w 174 173 -156 0
w 174 -173 156 0
w 174 -173 -156 1
w 175 174 157 0.622146
w 175 174 -157 0.246051
w 175 -174 157 0.416696
w 175 -174 -157 0.554128
w 176 175 158 0.973853
w 176 175 -158 0.505671
w 176 -175 158 0.689343
w 176 -175 -158 0.0323073
w 177 176 159 1
w 177 176 -159 0
w 177 -176 159 1
w 177 -176 -159 1
w 178 177 160 0
w 178 177 -160 1
w 178 -177 160 0
w 178 -177 -160 0
w 179 178 161 0.201361
w 179 178 -161 0.0637215
w 179 -178 161 0.673663
w 179 -178 -161 0.220727
w 180 179 162 1
w 180 179 -162 0
w 180 -179 162 0
w 180 -179 -162 1
w 181 163 1
w 181 -163 0
w 182 181 164 1
w 182 181 -164 0
w 182 -181 164 0
w 182 -181 -164 0
w 183 182 165 0
w 183 182 -165 1
w 183 -182 165 1
w 183 -182 -165 1
w 184 183 166 0
w 184 183 -166 0
w 184 -183 166 1
w 184 -183 -166 1
w 185 184 167 1
w 185 184 -167 1
w 185 -184 167 0
w 185 -184 -167 1
w 186 185 168 0.787295
w 186 185 -168 0.355597
w 186 -185 168 0.00874274
w 186 -185 -168 0.901085
w 187 186 169 0.848437
w 187 186 -169 0.837377
w 187 -186 169 0.757617
w 187 -186 -169 0.310277
w 188 187 170 0
w 188 187 -170 1
w 188 -187 170 0
w 188 -187 -170 0
w 189 188 171 0.117616
w 189 188 -171 0.202437
w 189 -188 171 0.868222
w 189 -188 -171 0.124446
w 190 189 172 0.0120782
w 190 189 -172 0.634894
w 190 -189 172 0.983192
w 190 -189 -172 0.299485
w 191 190 173 1
w 191 190 -173 0
w 191 -190 173 0
w 191 -190 -173 1
w 192 191 174 0.65911
w 192 191 -174 0.667329
w 192 -191 174 0.0878896
w 192 -191 -174 0.667852
w 193 192 175 0.773934
w 193 192 -175 0.516289
w 193 -192 175 0.405791
w 193 -192 -175 0.531551
w 194 193 176 0.425511
w 194 193 -176 0.777436
w 194 -193 176 0.152811
w 194 -193 -176 0.149508
w 195 194 177 0
w 195 194 -177 0
w 195 -194 177 1
w 195 -194 -177 1
w 196 195 178 1
w 196 195 -178 0
w 196 -195 178 1
w 196 -195 -178 1
w 197 196 179 0
w 197 196 -179 0
w 197 -196 179 1
w 197 -196 -179 1
w 198 197 180 0
w 198 197 -180 1
w 198 -197 180 0
w 198 -197 -180 1
w 199 181 0.730371
w 199 -181 0.824955
w 200 199 182 0
w 200 199 -182 0
w 200 -199 182 1
w 200 -199 -182 1
w 201 200 183 1
w 201 200 -183 0
w 201 -200 183 0
w 201 -200 -183 0
w 202 201 184 1
w 202 201 -184 0
w 202 -201 184 0
w 202 -201 -184 1
w 203 202 185 1
w 203 202 -185 0
w 203 -202 185 0
w 203 -202 -185 1
w 204 203 186 1
w 204 203 -186 0
w 204 -203 186 0
w 204 -203 -186 0
w 205 204 187 0.180699
w 205 204 -187 0.239298
w 205 -204 187 0.241888
w 205 -204 -187 0.00565441
w 206 205 188 0
w 206 205 -188 1
w 206 -205 188 0
w 206 -205 -188 1
w 207 206 189 0
w 207 206 -189 0
w 207 -206 189 1
w 207 -206 -189 0
w 208 207 190 1
w 208 207 -190 0
w 208 -207 190 0
w 208 -207 -190 1
w 209 208 191 0
w 209 208 -191 1
w 209 -208 191 0
w 209 -208 -191 1
w 210 209 192 0.991892
w 210 209 -192 0.649799
w 210 -209 192 0.987692
w 210 -209 -192 0.722232
w 211 210 193 0
w 211 210 -193 0
w 211 -210 193 1
w 211 -210 -193 1
w 212 211 194 0
w 212 211 -194 0
w 212 -211 194 1
w 212 -211 -194 1
w 213 212 195 0
w 213 212 -195 1
w 213 -212 195 1
w 213 -212 -195 0
w 214 213 196 1
w 214 213 -196 0
w 214 -213 196 0
w 214 -213 -196 0
w 215 214 197 0
w 215 214 -197 0
w 215 -214 197 0
w 215 -214 -197 1
w 216 215 198 0.490141
w 216 215 -198 0.17086
w 216 -215 198 0.883182
w 216 -215 -198 0.212373
w 217 199 0
w 217 -199 1
w 218 217 200 0
w 218 217 -200 1
w 218 -217 200 0
w 218 -217 -200 0
w 219 218 201 0.74241
w 219 218 -201 0.237614
w 219 -218 201 0.794132
w 219 -218 -201 0.205825
w 220 219 202 0.94193
w 220 219 -202 0.795539
w 220 -219 202 0.610586
w 220 -219 -202 0.512485
w 221 220 203 1
w 221 220 -203 0
w 221 -220 203 1
w 221 -220 -203 0
w 222 221 204 0.769271
w 222 221 -204 0.504598
w 222 -221 204 0.0298881
w 222 -221 -204 0.664761
w 223 222 205 0.200748
w 223 222 -205 0.547943
w 223 -222 205 0.207112
w 223 -222 -205 0.532924
w 224 223 206 0.381014
w 224 223 -206 0.268305
w 224 -223 206 0.825134
w 224 -223 -206 0.780992
w 225 224 207 0.586958
w 225 224 -207 0.523402
w 225 -224 207 0.0225538
w 225 -224 -207 0.38109
w 226 225 208 0.632049
w 226 225 -208 0.32302
w 226 -225 208 0.524765
w 226 -225 -208 0.242635
w 227 226 209 0.910551
w 227 226 -209 0.853393
w 227 -226 209 0.123509
w 227 -226 -209 0.642345
w 228 227 210 0.632336
w 228 227 -210 0.411616
w 228 -227 210 0.364339
w 228 -227 -210 0.662224
w 229 228 211 1
w 229 228 -211 1
w 229 -228 211 0
w 229 -228 -211 0
w 230 229 212 0
w 230 229 -212 0
w 230 -229 212 0
w 230 -229 -212 1
w 231 230 213 0.449142
w 231 230 -213 0.635929
w 231 -230 213 0.251598
w 231 -230 -213 0.471696
w 232 231 214 0
w 232 231 -214 1
w 232 -231 214 0
w 232 -231 -214 1
w 233 232 215 1
w 233 232 -215 0
w 233 -232 215 0
w 233 -232 -215 0
w 234 233 216 1
w 234 233 -216 1
w 234 -233 216 0
w 234 -233 -216 0
w 235 217 0.546479
w 235 -217 0.782932
w 236 235 218 0
w 236 235 -218 1
w 236 -235 218 0
w 236 -235 -218 0
w 237 236 219 1
w 237 236 -219 0
w 237 -236 219 1
w 237 -236 -219 1
w 238 237 220 0
w 238 237 -220 0
w 238 -237 220 0
w 238 -237 -220 1
w 239 238 221 0.436593
w 239 238 -221 0.762536
w 239 -238 221 0.887647
w 239 -238 -221 0.612138
w 240 239 222 1
w 240 239 -222 1
w 240 -239 222 1
w 240 -239 -222 0
w 241 240 223 0.707267
w 241 240 -223 0.570788
w 241 -240 223 0.436196
w 241 -240 -223 0.253747
w 242 241 224 0
w 242 241 -224 1
w 242 -241 224 0
w 242 -241 -224 0
w 243 242 225 0.261952
w 243 242 -225 0.26279
w 243 -242 225 0.023689
w 243 -242 -225 0.227779
w 244 243 226 1
w 244 243 -226 0
w 244 -243 226 0
w 244 -243 -226 0
w 245 244 227 1
w 245 244 -227 0
w 245 -244 227 0
w 245 -244 -227 0
w 246 245 228 0
w 246 245 -228 1
w 246 -245 228 1
w 246 -245 -228 0
w 247 246 229 0
w 247 246 -229 1
w 247 -246 229 0
w 247 -246 -229 0
w 248 247 230 0
w 248 247 -230 1
w 248 -247 230 1
w 248 -247 -230 0
w 249 248 231 0.955086
w 249 248 -231 0.577583
w 249 -248 231 0.202667
w 249 -248 -231 0.978775
w 250 249 232 0.544992
w 250 249 -232 0.278585
w 250 -249 232 0.470663
w 250 -249 -232 0.983871
w 251 250 233 0.677232
w 251 250 -233 0.859344
w 251 -250 233 0.15463
w 251 -250 -233 0.771448
w 252 251 234 0
w 252 251 -234 1
w 252 -251 234 0
w 252 -251 -234 1
w 253 235 1
w 253 -235 0
w 254 253 236 0.181011
w 254 253 -236 0.664721
w 254 -253 236 0.52628
w 254 -253 -236 0.434089
w 255 254 237 1
w 255 254 -237 0
w 255 -254 237 0
w 255 -254 -237 1
w 256 255 238 0
w 256 255 -238 0
w 256 -255 238 1
w 256 -255 -238 0
w 257 256 239 1
w 257 256 -239 1
w 257 -256 239 0
w 257 -256 -239 1
w 258 257 240 1
w 258 257 -240 0
w 258 -257 240 1
w 258 -257 -240 0
w 259 258 241 0
w 259 258 -241 0
w 259 -258 241 1
w 259 -258 -241 1
w 260 259 242 0
w 260 259 -242 0
w 260 -259 242 1
w 260 -259 -242 0
w 261 260 243 0.15738
w 261 260 -243 0.636141
w 261 -260 243 0.0928496
w 261 -260 -243 0.708095
w 262 261 244 1
w 262 261 -244 1
w 262 -261 244 0
w 262 -261 -244 1
w 263 262 245 0.347018
w 263 262 -245 0.364269
w 263 -262 245 0.174378
w 263 -262 -245 0.665398
w 264 263 246 0.255934
w 264 263 -246 0.843122
w 264 -263 246 0.394486
w 264 -263 -246 0.108938
w 265 264 247 0
w 265 264 -247 0
w 265 -264 247 0
w 265 -264 -247 1
w 266 265 248 0
w 266 265 -248 1
w 266 -265 248 1
w 266 -265 -248 0
w 267 266 249 0.97436
w 267 266 -249 0.975485
w 267 -266 249 0.360457
w 267 -266 -249 0.0672093
w 268 267 250 0.583448
w 268 267 -250 0.505154
w 268 -267 250 0.519974
w 268 -267 -250 0.595957
w 269 268 251 0
w 269 268 -251 0
w 269 -268 251 0
w 269 -268 -251 1
w 270 269 252 0.433299
w 270 269 -252 0.72034
w 270 -269 252 0.451496
w 270 -269 -252 0.827785
w 271 253 0.819297
w 271 -253 0.467293
w 272 271 254 0.457532
w 272 271 -254 0.739555
w 272 -271 254 0.747069
w 272 -271 -254 0.353341
w 273 272 255 1
w 273 272 -255 0
w 273 -272 255 1
w 273 -272 -255 0
w 274 273 256 0
w 274 273 -256 1
w 274 -273 256 1
w 274 -273 -256 0
w 275 274 257 0.350487
w 275 274 -257 0.738882
w 275 -274 257 0.832278
w 275 -274 -257 0.640515
w 276 275 258 0.463514
w 276 275 -258 0.104921
w 276 -275 258 0.290232
w 276 -275 -258 0.896813
w 277 276 259 0.741728
w 277 276 -259 0.724598
w 277 -276 259 0.654539
w 277 -276 -259 0.561025
w 278 277 260 0
w 278 277 -260 0
w 278 -277 260 1
w 278 -277 -260 0
w 279 278 261 1
w 279 278 -261 1
w 279 -278 261 0
w 279 -278 -261 1
w 280 279 262 0.164647
w 280 279 -262 0.217603
w 280 -279 262 0.520789
w 280 -279 -262 0.307573
w 281 280 263 0.871276
w 281 280 -263 0.0464551
w 281 -280 263 0.615191
w 281 -280 -263 0.511791
w 282 281 264 0.0787048
w 282 281 -264 0.616713
w 282 -281 264 0.0185452
w 282 -281 -264 0.975518
w 283 282 265 0
w 283 282 -265 0
w 283 -282 265 0
w 283 -282 -265 1
w 284 283 266 0
w 284 283 -266 1
w 284 -283 266 0
w 284 -283 -266 1
w 285 284 267 0
w 285 284 -267 0
w 285 -284 267 0
w 285 -284 -267 1
w 286 285 268 0.99942
w 286 285 -268 0.180814
w 286 -285 268 0.466166
w 286 -285 -268 0.306993
w 287 286 269 0.337442
w 287 286 -269 0.353448
w 287 -286 269 0.578917
w 287 -286 -269 0.849233
w 288 287 270 1
w 288 287 -270 0
w 288 -287 270 0
w 288 -287 -270 1
w 289 271 0.86058
w 289 -271 0.333255
w 290 289 272 1
w 290 289 -272 1
w 290 -289 272 0
w 290 -289 -272 0
w 291 290 273 1
w 291 290 -273 1
w 291 -290 273 0
w 291 -290 -273 1
w 292 291 274 0
w 292 291 -274 0
w 292 -291 274 1
w 292 -291 -274 0
w 293 292 275 0
w 293 292 -275 0
w 293 -292 275 1
w 293 -292 -275 1
w 294 293 276 0.633488
w 294 293 -276 0.0868063
w 294 -293 276 0.85471
w 294 -293 -276 0.29111
w 295 294 277 0.955016
w 295 294 -277 0.924249
w 295 -294 277 0.460672
w 295 -294 -277 0.815596
w 296 295 278 1
w 296 295 -278 1
w 296 -295 278 0
w 296 -295 -278 0
w 297 296 279 0.531478
w 297 296 -279 0.105947
w 297 -296 279 0.752698
w 297 -296 -279 0.809793
w 298 297 280 1
w 298 297 -280 0
w 298 -297 280 0
w 298 -297 -280 0
w 299 298 281 1
w 299 298 -281 0
w 299 -298 281 1
w 299 -298 -281 0
w 300 299 282 0.227838
w 300 299 -282 0.7417
w 300 -299 282 0.899763
w 300 -299 -282 0.0825481
w 301 300 283 1
w 301 300 -283 1
w 301 -300 283 1
w 301 -300 -283 0
w 302 301 284 0.214564
w 302 301 -284 0.378291
w 302 -301 284 0.850634
w 302 -301 -284 0.697329
w 303 302 285 0
w 303 302 -285 1
w 303 -302 285 1
w 303 -302 -285 0
w 304 303 286 1
w 304 303 -286 1
w 304 -303 286 0
w 304 -303 -286 1
w 305 304 287 1
w 305 304 -287 1
w 305 -304 287 0
w 305 -304 -287 0
w 306 305 288 0.42742
w 306 305 -288 0.679598
w 306 -305 288 0.368248
w 306 -305 -288 0.327183
w 307 289 0.401058
w 307 -289 0.779698
w 308 307 290 0.358118
w 308 307 -290 0.692884
w 308 -307 290 0.65287
w 308 -307 -290 0.572681
w 309 308 291 0
w 309 308 -291 1
w 309 -308 291 0
w 309 -308 -291 1
w 310 309 292 1
w 310 309 -292 1
w 310 -309 292 0
w 310 -309 -292 0
w 311 310 293 1
w 311 310 -293 0
w 311 -310 293 1
w 311 -310 -293 0
w 312 311 294 1
w 312 311 -294 1
w 312 -311 294 0
w 312 -311 -294 1
w 313 312 295 0.343213
w 313 312 -295 0.767864
w 313 -312 295 0.389272
w 313 -312 -295 0.744272
w 314 313 296 0.188982
w 314 313 -296 0.102389
w 314 -313 296 0.240446
w 314 -313 -296 0.841852
w 315 314 297 0.311621
w 315 314 -297 0.345356
w 315 -314 297 0.945081
w 315 -314 -297 0.72598
w 316 315 298 1
w 316 315 -298 1
w 316 -315 298 0
w 316 -315 -298 1
w 317 316 299 0.574309
w 317 316 -299 0.480214
w 317 -316 299 0.784937
w 317 -316 -299 0.973107
w 318 317 300 0.133354
w 318 317 -300 0.986368
w 318 -317 300 0.923511
w 318 -317 -300 0.108319
w 319 318 301 0
w 319 318 -301 1
w 319 -318 301 1
w 319 -318 -301 1
w 320 319 302 0
w 320 319 -302 1
w 320 -319 302 0
w 320 -319 -302 1
w 321 320 303 0.973264
w 321 320 -303 0.294542
w 321 -320 303 0.3161
w 321 -320 -303 0.918345
w 322 321 304 0
w 322 321 -304 1
w 322 -321 304 0
w 322 -321 -304 0
w 323 322 305 0
w 323 322 -305 1
w 323 -322 305 1
w 323 -322 -305 0
w 324 323 306 0
w 324 323 -306 1
w 324 -323 306 1
w 324 -323 -306 0